20J6M/DAT/20J6MNNL-5.dat
20 6
29.402 29.402
29.8954 29.8954
19.5862 19.5862
24.0465 24.0465
30.4626 30.4626
22.5313 22.5313
32.0767 32.0767
25.2592 25.2592
25.5783 25.5783
30.4021 30.4021
26.5756 26.5756
23.4568 23.4568
23.2973 23.2973
18.5288 18.5288
25.5189 25.5189
30.4541 30.4541
24.3128 24.3128
15.0916 15.0916
26.5521 26.5521
17.3534 17.3534
500.3817