20J6M/SOL/20J6MNNL-5.sol
solution status: optimal solution found
objective value:                             83.39695
x#1#2                               0.775035711856337 	(obj:0)
x#1#4                               0.224964288143663 	(obj:0)
x#2#1                                               1 	(obj:0)
x#3#5                                               1 	(obj:0)
x#4#6                                               1 	(obj:0)
x#5#3                                               1 	(obj:0)
x#6#5                                               1 	(obj:0)
x#7#3                                               1 	(obj:0)
x#8#2                                               1 	(obj:0)
x#9#1                                               1 	(obj:0)
x#10#1                              0.918464513964496 	(obj:0)
x#10#2                             0.0815354860355042 	(obj:0)
x#11#4                                              1 	(obj:0)
x#12#6                                              1 	(obj:0)
x#13#5                              0.231668476604585 	(obj:0)
x#13#6                              0.768331523395415 	(obj:0)
x#14#5                                              1 	(obj:0)
x#15#4                                              1 	(obj:0)
x#16#3                              0.684888077467402 	(obj:0)
x#16#4                              0.315111922532598 	(obj:0)
x#17#2                                              1 	(obj:0)
x#18#4                                              1 	(obj:0)
x#19#2                              0.322328554050339 	(obj:0)
x#19#6                              0.677671445949661 	(obj:0)
x#20#5                                              1 	(obj:0)
z                                            83.39695 	(obj:1)
